(set-info :source |printed by MathSAT|)
(declare-fun |!{$(in_main#0)<equal>}| () Int)
(declare-fun |!{$(in_main#0)<equal>}.next| () Int)
(declare-fun |!{$(in_main#0)<i>}| () Int)
(declare-fun |!{$(in_main#0)<i>}.next| () Int)
(declare-fun |!{$(in_main#0)<k>}| () Int)
(declare-fun |!{$(in_main#0)<k>}.next| () Int)
(declare-fun |!{$(in_main#0)<k#1>}| () Int)
(declare-fun |!{$(in_main#0)<k#1>}.next| () Int)
(declare-fun |!{$(in_main#0)<array1.1>}| () (Array Int Int))
(declare-fun |!{$(in_main#0)<array1.1>}.next| () (Array Int Int))
(declare-fun |!{$(in_main#0)<array2.2>}| () (Array Int Int))
(declare-fun |!{$(in_main#0)<array2.2>}.next| () (Array Int Int))
(declare-fun |!{$(in_main#0)<N>}| () Int)
(declare-fun |!{$(in_main#0)<N>}.next| () Int)
(declare-fun |!{$(in_main#0)<$(in___VERIFIER_nondet_int#0)<h#<__VERIFIER_nondet_int.return>>>}| () Int)
(declare-fun |!{$(in_main#0)<$(in___VERIFIER_nondet_int#2)<h#<__VERIFIER_nondet_int.return>>>}| () Int)
(declare-fun |!{$(in_main#0)<$(in___VERIFIER_nondet_int#3)<h#<__VERIFIER_nondet_int.return>>>}| () Int)
(declare-fun !pc () Int)
(declare-fun !pc.next () Int)
(declare-fun |%{$(in_main#0)<equal>}#1| () Int)
(declare-fun |%{$(in_main#0)<i>}#1| () Int)
(declare-fun |%{$(in_main#0)<k#1>}#1| () Int)
(declare-fun |%{$(in_main#0)<array1.1>}#1| () (Array Int Int))
(declare-fun |%{$(in_main#0)<array2.2>}#1| () (Array Int Int))
(declare-fun |%{$(in_main#0)<equal>}#2| () Int)
(define-fun .def_39 () Int (! !pc :next !pc.next))
(define-fun .def_42 () Bool (! (= .def_39 2) :init true))
(define-fun .def_218 () Bool (= .def_39 42))
(define-fun .def_183 () Bool (= !pc.next 71))
(define-fun .def_221 () Bool (and .def_183 .def_218))
(define-fun .def_210 () Bool (= |!{$(in_main#0)<i>}.next| 0))
(define-fun .def_209 () Bool (= |!{$(in_main#0)<equal>}.next| 1))
(define-fun .def_211 () Bool (and .def_209 .def_210))
(define-fun .def_12 () Int (! |!{$(in_main#0)<k>}| :next |!{$(in_main#0)<k>}.next|))
(define-fun .def_94 () Bool (= .def_12 |!{$(in_main#0)<k>}.next|))
(define-fun .def_212 () Bool (and .def_94 .def_211))
(define-fun .def_14 () Int (! |!{$(in_main#0)<k#1>}| :next |!{$(in_main#0)<k#1>}.next|))
(define-fun .def_96 () Bool (= .def_14 |!{$(in_main#0)<k#1>}.next|))
(define-fun .def_213 () Bool (and .def_96 .def_212))
(define-fun .def_16 () (Array Int Int) (! |!{$(in_main#0)<array1.1>}| :next |!{$(in_main#0)<array1.1>}.next|))
(define-fun .def_98 () Bool (= .def_16 |!{$(in_main#0)<array1.1>}.next|))
(define-fun .def_214 () Bool (and .def_98 .def_213))
(define-fun .def_18 () (Array Int Int) (! |!{$(in_main#0)<array2.2>}| :next |!{$(in_main#0)<array2.2>}.next|))
(define-fun .def_100 () Bool (= .def_18 |!{$(in_main#0)<array2.2>}.next|))
(define-fun .def_215 () Bool (and .def_100 .def_214))
(define-fun .def_20 () Int (! |!{$(in_main#0)<N>}| :next |!{$(in_main#0)<N>}.next|))
(define-fun .def_102 () Bool (= .def_20 |!{$(in_main#0)<N>}.next|))
(define-fun .def_216 () Bool (and .def_102 .def_215))
(define-fun .def_193 () Bool (<= .def_20 .def_12))
(define-fun .def_217 () Bool (and .def_193 .def_216))
(define-fun .def_222 () Bool (and .def_217 .def_221))
(define-fun .def_76 () Bool (= !pc.next 42))
(define-fun .def_219 () Bool (and .def_76 .def_218))
(define-fun .def_196 () (Array Int Int) (store .def_18 .def_12 |!{$(in_main#0)<$(in___VERIFIER_nondet_int#3)<h#<__VERIFIER_nondet_int.return>>>}|))
(define-fun .def_205 () Bool (= |!{$(in_main#0)<array2.2>}.next| .def_196))
(define-fun .def_195 () (Array Int Int) (store .def_16 .def_12 |!{$(in_main#0)<$(in___VERIFIER_nondet_int#2)<h#<__VERIFIER_nondet_int.return>>>}|))
(define-fun .def_203 () Bool (= |!{$(in_main#0)<array1.1>}.next| .def_195))
(define-fun .def_198 () Int (* (- 1) |!{$(in_main#0)<k>}.next|))
(define-fun .def_199 () Int (+ .def_12 .def_198))
(define-fun .def_200 () Bool (= .def_199 (- 1)))
(define-fun .def_10 () Int (! |!{$(in_main#0)<i>}| :next |!{$(in_main#0)<i>}.next|))
(define-fun .def_92 () Bool (= .def_10 |!{$(in_main#0)<i>}.next|))
(define-fun .def_8 () Int (! |!{$(in_main#0)<equal>}| :next |!{$(in_main#0)<equal>}.next|))
(define-fun .def_90 () Bool (= .def_8 |!{$(in_main#0)<equal>}.next|))
(define-fun .def_105 () Bool (and .def_90 .def_92))
(define-fun .def_201 () Bool (and .def_105 .def_200))
(define-fun .def_202 () Bool (and .def_96 .def_201))
(define-fun .def_204 () Bool (and .def_202 .def_203))
(define-fun .def_206 () Bool (and .def_204 .def_205))
(define-fun .def_207 () Bool (and .def_102 .def_206))
(define-fun .def_194 () Bool (not .def_193))
(define-fun .def_208 () Bool (and .def_194 .def_207))
(define-fun .def_220 () Bool (and .def_208 .def_219))
(define-fun .def_223 () Bool (or .def_220 .def_222))
(define-fun .def_182 () Bool (= .def_39 71))
(define-fun .def_132 () Bool (= !pc.next 0))
(define-fun .def_189 () Bool (and .def_132 .def_182))
(define-fun .def_156 () Bool (= .def_8 1))
(define-fun .def_158 () Bool (not .def_156))
(define-fun .def_106 () Bool (and .def_94 .def_105))
(define-fun .def_117 () Bool (and .def_96 .def_106))
(define-fun .def_118 () Bool (and .def_98 .def_117))
(define-fun .def_119 () Bool (and .def_100 .def_118))
(define-fun .def_120 () Bool (and .def_102 .def_119))
(define-fun .def_179 () Bool (and .def_120 .def_158))
(define-fun .def_139 () Bool (<= .def_20 .def_10))
(define-fun .def_180 () Bool (and .def_139 .def_179))
(define-fun .def_190 () Bool (and .def_180 .def_189))
(define-fun .def_128 () Bool (= !pc.next 102))
(define-fun .def_186 () Bool (and .def_128 .def_182))
(define-fun .def_172 () Bool (= |!{$(in_main#0)<k#1>}.next| 0))
(define-fun .def_173 () Bool (and .def_106 .def_172))
(define-fun .def_174 () Bool (and .def_98 .def_173))
(define-fun .def_175 () Bool (and .def_100 .def_174))
(define-fun .def_176 () Bool (and .def_102 .def_175))
(define-fun .def_177 () Bool (and .def_156 .def_176))
(define-fun .def_178 () Bool (and .def_139 .def_177))
(define-fun .def_187 () Bool (and .def_178 .def_186))
(define-fun .def_184 () Bool (and .def_182 .def_183))
(define-fun .def_161 () Int (* (- 1) |!{$(in_main#0)<i>}.next|))
(define-fun .def_162 () Int (+ .def_10 .def_161))
(define-fun .def_163 () Bool (= .def_162 (- 1)))
(define-fun .def_160 () Bool (= |!{$(in_main#0)<equal>}.next| |%{$(in_main#0)<equal>}#2|))
(define-fun .def_164 () Bool (and .def_160 .def_163))
(define-fun .def_165 () Bool (and .def_94 .def_164))
(define-fun .def_166 () Bool (and .def_96 .def_165))
(define-fun .def_167 () Bool (and .def_98 .def_166))
(define-fun .def_168 () Bool (and .def_100 .def_167))
(define-fun .def_169 () Bool (and .def_102 .def_168))
(define-fun .def_150 () Bool (= |%{$(in_main#0)<equal>}#2| 0))
(define-fun .def_142 () Int (select .def_18 .def_10))
(define-fun .def_141 () Int (select .def_16 .def_10))
(define-fun .def_143 () Bool (= .def_141 .def_142))
(define-fun .def_144 () Bool (not .def_143))
(define-fun .def_152 () Bool (and .def_144 .def_150))
(define-fun .def_149 () Bool (= .def_8 |%{$(in_main#0)<equal>}#2|))
(define-fun .def_151 () Bool (and .def_143 .def_149))
(define-fun .def_153 () Bool (or .def_151 .def_152))
(define-fun .def_170 () Bool (and .def_153 .def_169))
(define-fun .def_140 () Bool (not .def_139))
(define-fun .def_171 () Bool (and .def_140 .def_170))
(define-fun .def_185 () Bool (and .def_171 .def_184))
(define-fun .def_188 () Bool (or .def_185 .def_187))
(define-fun .def_191 () Bool (or .def_188 .def_190))
(define-fun .def_123 () Bool (= .def_39 102))
(define-fun .def_133 () Bool (and .def_123 .def_132))
(define-fun .def_79 () Bool (<= .def_20 .def_14))
(define-fun .def_121 () Bool (and .def_79 .def_120))
(define-fun .def_134 () Bool (and .def_121 .def_133))
(define-fun .def_129 () Bool (and .def_123 .def_128))
(define-fun .def_108 () Int (* (- 1) |!{$(in_main#0)<k#1>}.next|))
(define-fun .def_109 () Int (+ .def_14 .def_108))
(define-fun .def_110 () Bool (= .def_109 (- 1)))
(define-fun .def_111 () Bool (and .def_106 .def_110))
(define-fun .def_112 () Bool (and .def_98 .def_111))
(define-fun .def_113 () Bool (and .def_100 .def_112))
(define-fun .def_114 () Bool (and .def_102 .def_113))
(define-fun .def_82 () Int (select .def_18 .def_14))
(define-fun .def_81 () Int (select .def_16 .def_14))
(define-fun .def_83 () Bool (= .def_81 .def_82))
(define-fun .def_84 () Int (ite .def_83 1 0))
(define-fun .def_85 () Bool (= .def_84 0))
(define-fun .def_86 () Bool (not .def_85))
(define-fun .def_115 () Bool (and .def_86 .def_114))
(define-fun .def_80 () Bool (not .def_79))
(define-fun .def_116 () Bool (and .def_80 .def_115))
(define-fun .def_130 () Bool (and .def_116 .def_129))
(define-fun .def_125 () Bool (= !pc.next 122))
(define-fun .def_126 () Bool (and .def_123 .def_125))
(define-fun .def_91 () Bool (and .def_85 .def_90))
(define-fun .def_93 () Bool (and .def_91 .def_92))
(define-fun .def_95 () Bool (and .def_93 .def_94))
(define-fun .def_97 () Bool (and .def_95 .def_96))
(define-fun .def_99 () Bool (and .def_97 .def_98))
(define-fun .def_101 () Bool (and .def_99 .def_100))
(define-fun .def_103 () Bool (and .def_101 .def_102))
(define-fun .def_104 () Bool (and .def_80 .def_103))
(define-fun .def_127 () Bool (and .def_104 .def_126))
(define-fun .def_131 () Bool (or .def_127 .def_130))
(define-fun .def_135 () Bool (or .def_131 .def_134))
(define-fun .def_77 () Bool (and .def_42 .def_76))
(define-fun .def_72 () Bool (= |!{$(in_main#0)<N>}.next| |!{$(in_main#0)<$(in___VERIFIER_nondet_int#0)<h#<__VERIFIER_nondet_int.return>>>}|))
(define-fun .def_70 () Bool (= |!{$(in_main#0)<array2.2>}.next| |%{$(in_main#0)<array2.2>}#1|))
(define-fun .def_68 () Bool (= |!{$(in_main#0)<array1.1>}.next| |%{$(in_main#0)<array1.1>}#1|))
(define-fun .def_66 () Bool (= |!{$(in_main#0)<k#1>}.next| |%{$(in_main#0)<k#1>}#1|))
(define-fun .def_64 () Bool (= |!{$(in_main#0)<k>}.next| 0))
(define-fun .def_62 () Bool (= |!{$(in_main#0)<i>}.next| |%{$(in_main#0)<i>}#1|))
(define-fun .def_61 () Bool (= |!{$(in_main#0)<equal>}.next| |%{$(in_main#0)<equal>}#1|))
(define-fun .def_63 () Bool (and .def_61 .def_62))
(define-fun .def_65 () Bool (and .def_63 .def_64))
(define-fun .def_67 () Bool (and .def_65 .def_66))
(define-fun .def_69 () Bool (and .def_67 .def_68))
(define-fun .def_71 () Bool (and .def_69 .def_70))
(define-fun .def_73 () Bool (and .def_71 .def_72))
(define-fun .def_56 () Bool (<= |!{$(in_main#0)<$(in___VERIFIER_nondet_int#0)<h#<__VERIFIER_nondet_int.return>>>}| 0))
(define-fun .def_57 () Bool (not .def_56))
(define-fun .def_58 () Int (ite .def_57 1 0))
(define-fun .def_59 () Bool (= .def_58 0))
(define-fun .def_60 () Bool (not .def_59))
(define-fun .def_74 () Bool (and .def_60 .def_73))
(define-fun .def_78 () Bool (and .def_74 .def_77))
(define-fun .def_136 () Bool (or .def_78 .def_135))
(define-fun .def_192 () Bool (or .def_136 .def_191))
(define-fun .def_224 () Bool (! (or .def_192 .def_223) :trans true))
(define-fun .def_137 () Bool (= .def_39 122))
(define-fun .def_225 () Bool (! (not .def_137) :invar-property 0 :invar-property-name ||))
(assert true)
